%%% static parameters %%%
timespan = 1;
Fact = [2];
Distr1 = [5];
Distr2 = [10];
Clients_N = [60];
Demand_W = [15];
Lt0 = [4];
Lt1 = [4];
SS_ = [0.85];
DS_D = [8];
K = [200];
MA = [500];
%%% dynamic parameters %%%
lost_ratio_sales_ret_th = 0.47975783237137126;
lost_ratio_sales_ret_w = 60;
lost_ratio_sales_dis_th = 0.9463792336096338;
lost_ratio_sales_dis_w = 30;
lost_ratio_sales_fac_th = 0.8379321532766987;
lost_ratio_sales_fac_w = 52;
stock_customer_MA_mean_relative_th = 0.6462597552763899;
stock_customer_MA_mean_relative_w = 77;
stock_distributor_MA_mean_relative_th = 0.28936401750957286;
stock_distributor_MA_mean_relative_w = 100;
stock_retailer_MA_mean_relative_th = 0.7138318411483154;
stock_retailer_MA_mean_relative_w = 21;
stock_factory_MA_mean_relative_th = 0.13284723743043358;
stock_factory_MA_mean_relative_w = 53;
